128
Lattice="13.993 0.0 0.0 0.0 13.993 0.0 0.0 0.0 13.993" Properties=species:S:1:pos:R:3:spacegroup_kinds:I:1 spacegroup="I -4 3 m" unit_cell=conventional occupancy="_JSON {\"0\": {\"Na\": 1.0}, \"1\": {\"Na\": 1.0}, \"2\": {\"Na\": 1.0}, \"3\": {\"Na\": 1.0}, \"4\": {\"Na\": 1.0}, \"5\": {\"Na\": 1.0}, \"6\": {\"P\": 1.0}, \"7\": {\"P\": 1.0}, \"8\": {\"S\": 1.0}, \"9\": {\"S\": 1.0}, \"10\": {\"S\": 1.0}, \"11\": {\"S\": 1.0}, \"12\": {\"S\": 1.0}, \"13\": {\"S\": 1.0}, \"14\": {\"S\": 1.0}, \"15\": {\"S\": 1.0}}" pbc="T T T"
Na       3.52308571      -0.00691322       0.03238443        0
Na       0.07615149       3.48654233      -0.01170685        0
Na       0.07896064       0.03837174       3.47477628        0
Na       0.02712800       3.47507912       3.47496351        0
Na       3.51034811      -0.09566401       3.41200411        0
Na       3.47013562       3.44760844       0.01571237        0
P       -0.04540120      -0.07061519       0.07328244        6
P        3.48696118       3.50162641       3.42701259        6
S        5.77287936       1.20194763       1.13885182        8
S        1.21518640       5.77006657       1.18181681        8
S        1.16631617       1.28901541       5.79942364        8
S        5.74721295       5.84122575       5.73905632        8
S        2.31229168       4.59666799       4.62824220        8
S        4.70449456       2.33877183       4.70321991        8
S        4.68886909       4.67959632       2.22792240        8
S        2.26585629       2.27881656       2.35470461        8
Na       3.51543091      -0.08815201       7.01270420        0
Na      -0.01925411       3.46440390       7.02708381        0
Na       0.05154998       0.04656401      10.45278912        0
Na      -0.01546062       3.51481317      10.54352726        0
Na       3.47429129      -0.00928295      10.43943325        0
Na       3.43843967       3.53887629       7.06431200        0
P       -0.00360051       0.05017664       7.01458180        6
P        3.46599401       3.51631978      10.57165183        6
S        5.79830720       1.27463368       8.06191424        8
S        1.23749663       5.80445085       8.17795113        8
S        1.20098954       1.09702305      12.78561491        8
S        5.81795413       5.87399320      12.77068499        8
S        2.26142382       4.66956365      11.73692161        8
S        4.71108906       2.27536049      11.71681487        8
S        4.69950538       4.74308375       9.26324585        8
S        2.28546539       2.28224309       9.22517275        8
Na       3.51305601       7.00955276       0.00025567        0
Na      -0.01172936      10.42398146      -0.02103227        0
Na      -0.01713573       6.95638614       3.49018571        0
Na       0.02020254      10.58905930       3.50697889        0
Na       3.51112752       6.99277770       3.40231144        0
Na       3.49692431      10.49776151       0.12316211        0
P       -0.00961805       7.01157737      -0.00173559        6
P        3.43981610      10.55189114       3.53584665        6
S        5.83965010       8.14743213       1.26654122        8
S        1.12630895      12.82594135       1.30592428        8
S        1.14687468       8.16458661       5.80508107        8
S        5.77492472      12.71906533       5.80352665        8
S        2.24873331      11.71483112       4.64868029        8
S        4.77214822       9.25918584       4.67854842        8
S        4.73532736      11.62960828       2.31322150        8
S        2.36720564       9.21797434       2.31108019        8
Na       3.51124414       7.03559114       6.93465246        0
Na      -0.06602283      10.52084708       7.01134923        0
Na       0.01252464       7.01382241      10.46074876        0
Na       0.01161268      10.50940362      10.45903243        0
Na       3.59153873       7.02019165      10.43518483        0
Na       3.53107768      10.44601592       7.03585423        0
P        0.05792978       6.95546588       7.04466881        6
P        3.51888905      10.53585301      10.58958965        6
S        5.78782909       8.15521469       8.14842578        8
S        1.15561099      12.79274341       8.20995910        8
S        1.21023604       8.23426066      12.79724859        8
S        5.87277520      12.78336566      12.93260696        8
S        2.33313187      11.64829362      11.63760688        8
S        4.71877512       9.28717536      11.72685152        8
S        4.71831338      11.68751005       9.25600881        8
S        2.22610614       9.27602275       9.34116844        8
Na      10.50545469      -0.06228694       0.00865905        0
Na       7.01576587       3.45405713       0.00768626        0
Na       6.99941044      -0.05714851       3.51613937        0
Na       7.02453923       3.55240256       3.55094010        0
Na      10.42586653      -0.04689125       3.52400176        0
Na      10.52043930       3.52400238       0.19263657        0
P        7.02504453       0.05677828       0.04770009        6
P       10.52731956       3.48248654       3.53619846        6
S       12.75795724       1.18456057       1.17213332        8
S        8.19699521       5.91583143       1.10303824        8
S        8.22721451       1.11576571       5.77650191        8
S       12.85104603       5.80331250       5.74621126        8
S        9.26258331       4.72863139       4.65813317        8
S       11.70197443       2.30412709       4.66207148        8
S       11.79834870       4.72634745       2.20059137        8
S        9.30767122       2.26875918       2.34447017        8
Na      10.45512396      -0.00573682       7.02174936        0
Na       7.03978776       3.43823518       6.97977494        0
Na       6.97275273      -0.03266646      10.58302271        0
Na       7.01674909       3.43520580      10.54064310        0
Na      10.60085781       0.05162326      10.41878150        0
Na      10.47053830       3.56159556       6.96111653        0
P        7.01869097       0.03873170       6.95015348        6
P       10.49177373       3.33618663      10.44353062        6
S       12.78397009       1.13401234       8.27452207        8
S        8.12139443       5.77809628       8.19943853        8
S        8.26496516       1.12460839      12.85475669        8
S       12.79711015       5.75102307      12.81970367        8
S        9.30830148       4.66464066      11.69464160        8
S       11.67188582       2.30752437      11.72425803        8
S       11.77045234       4.63276073       9.40500017        8
S        9.20074411       2.29425925       9.32776436        8
Na      10.50879959       6.96536502      -0.01040611        0
Na       6.97184995      10.46528176       0.04248010        0
Na       7.01435077       6.96185452       3.54322999        0
Na       7.01186498      10.53539311       3.52973144        0
Na      10.45330025       6.96849095       3.53561468        0
Na      10.52526851      10.49370492       0.00586637        0
P        7.06038324       6.96692143       0.02735487        6
P       10.48464037      10.48386594       3.55318884        6
S       12.83786932       8.23357698       1.26167544        8
S        8.19395169      12.83069615       1.18088816        8
S        8.20910982       8.18639435       5.80494830        8
S       12.82635635      12.75568747       5.90471786        8
S        9.24804763      11.63044207       4.75255704        8
S       11.73073463       9.32955449       4.72606878        8
S       11.69053916      11.64628878       2.30563873        8
S        9.26449041       9.34710449       2.29449563        8
Na      10.45347514       6.98043071       7.01714657        0
Na       6.96831377      10.45363898       7.00868436        0
Na       7.00874833       6.97115284      10.47119808        0
Na       7.00810250      10.42234578      10.42437681        0
Na      10.45882779       6.98582764      10.51029538        0
Na      10.56851781      10.53763298       6.98850307        0
P        6.99554919       6.94637353       6.99557434        6
P       10.48031707      10.51088593      10.45338845        6
S       12.82256583       8.26953845       8.18746349        8
S        8.21298709      12.83110570       8.17284048        8
S        8.20410612       8.19353112      12.80148230        8
S       12.75794801      12.79782401      12.82149841        8
S        9.37090568      11.73911504      11.79881062        8
S       11.65278412       9.34196453      11.70031860        8
S       11.80064165      11.65073659       9.25636241        8
S        9.26837887       9.19215371       9.27206075        8
