16
Lattice="6.9965 0.0 0.0 0.0 6.9965 0.0 0.0 0.0 6.9965" Properties=species:S:1:pos:R:3:spacegroup_kinds:I:1 spacegroup="I -4 3 m" unit_cell=conventional occupancy="_JSON {\"0\": {\"Na\": 1.0}, \"1\": {\"Na\": 1.0}, \"2\": {\"Na\": 1.0}, \"3\": {\"Na\": 1.0}, \"4\": {\"Na\": 1.0}, \"5\": {\"Na\": 1.0}, \"6\": {\"P\": 1.0}, \"7\": {\"P\": 1.0}, \"8\": {\"S\": 1.0}, \"9\": {\"S\": 1.0}, \"10\": {\"S\": 1.0}, \"11\": {\"S\": 1.0}, \"12\": {\"S\": 1.0}, \"13\": {\"S\": 1.0}, \"14\": {\"S\": 1.0}, \"15\": {\"S\": 1.0}}" pbc="T T T"
Na       3.49825000       0.00000000       0.00000000        0
Na       0.00000000       3.49825000       0.00000000        0
Na       0.00000000       0.00000000       3.49825000        0
Na       0.00000000       3.49825000       3.49825000        0
Na       3.49825000       0.00000000       3.49825000        0
Na       3.49825000       3.49825000       0.00000000        0
P        0.00000000       0.00000000       0.00000000        6
P        3.49825000       3.49825000       3.49825000        6
S        5.80009850       1.19640150       1.19640150        8
S        1.19640150       5.80009850       1.19640150        8
S        1.19640150       1.19640150       5.80009850        8
S        5.80009850       5.80009850       5.80009850        8
S        2.30184850       4.69465150       4.69465150        8
S        4.69465150       2.30184850       4.69465150        8
S        4.69465150       4.69465150       2.30184850        8
S        2.30184850       2.30184850       2.30184850        8
