Na P  S 
 1.0000000000000000
    13.9930000000000003    0.0000000000000000    0.0000000000000000
     0.0000000000000000   13.9930000000000003    0.0000000000000000
     0.0000000000000000    0.0000000000000000   13.9930000000000003
 Na  P   S  
  48  16  64
Direct
  0.2500000000000000  0.0000000000000000  0.0000000000000000
  0.0000000000000000  0.2500000000000000  0.0000000000000000
  0.0000000000000000  0.0000000000000000  0.2500000000000000
  0.0000000000000000  0.2500000000000000  0.2500000000000000
  0.2500000000000000  0.0000000000000000  0.2500000000000000
  0.2500000000000000  0.2500000000000000  0.0000000000000000
  0.2500000000000000  0.0000000000000000  0.5000000000000000
  0.0000000000000000  0.2500000000000000  0.5000000000000000
  0.0000000000000000  0.0000000000000000  0.7500000000000000
  0.0000000000000000  0.2500000000000000  0.7500000000000000
  0.2500000000000000  0.0000000000000000  0.7500000000000000
  0.2500000000000000  0.2500000000000000  0.5000000000000000
  0.2500000000000000  0.5000000000000000  0.0000000000000000
  0.0000000000000000  0.7500000000000000  0.0000000000000000
  0.0000000000000000  0.5000000000000000  0.2500000000000000
  0.0000000000000000  0.7500000000000000  0.2500000000000000
  0.2500000000000000  0.5000000000000000  0.2500000000000000
  0.2500000000000000  0.7500000000000000  0.0000000000000000
  0.2500000000000000  0.5000000000000000  0.5000000000000000
  0.0000000000000000  0.7500000000000000  0.5000000000000000
  0.0000000000000000  0.5000000000000000  0.7500000000000000
  0.0000000000000000  0.7500000000000000  0.7500000000000000
  0.2500000000000000  0.5000000000000000  0.7500000000000000
  0.2500000000000000  0.7500000000000000  0.5000000000000000
  0.7500000000000000  0.0000000000000000  0.0000000000000000
  0.5000000000000000  0.2500000000000000  0.0000000000000000
  0.5000000000000000  0.0000000000000000  0.2500000000000000
  0.5000000000000000  0.2500000000000000  0.2500000000000000
  0.7500000000000000  0.0000000000000000  0.2500000000000000
  0.7500000000000000  0.2500000000000000  0.0000000000000000
  0.7500000000000000  0.0000000000000000  0.5000000000000000
  0.5000000000000000  0.2500000000000000  0.5000000000000000
  0.5000000000000000  0.0000000000000000  0.7500000000000000
  0.5000000000000000  0.2500000000000000  0.7500000000000000
  0.7500000000000000  0.0000000000000000  0.7500000000000000
  0.7500000000000000  0.2500000000000000  0.5000000000000000
  0.7500000000000000  0.5000000000000000  0.0000000000000000
  0.5000000000000000  0.7500000000000000  0.0000000000000000
  0.5000000000000000  0.5000000000000000  0.2500000000000000
  0.5000000000000000  0.7500000000000000  0.2500000000000000
  0.7500000000000000  0.5000000000000000  0.2500000000000000
  0.7500000000000000  0.7500000000000000  0.0000000000000000
  0.7500000000000000  0.5000000000000000  0.5000000000000000
  0.5000000000000000  0.7500000000000000  0.5000000000000000
  0.5000000000000000  0.5000000000000000  0.7500000000000000
  0.5000000000000000  0.7500000000000000  0.7500000000000000
  0.7500000000000000  0.5000000000000000  0.7500000000000000
  0.7500000000000000  0.7500000000000000  0.5000000000000000
  0.0000000000000000  0.0000000000000000  0.0000000000000000
  0.2500000000000000  0.2500000000000000  0.2500000000000000
  0.0000000000000000  0.0000000000000000  0.5000000000000000
  0.2500000000000000  0.2500000000000000  0.7500000000000000
  0.0000000000000000  0.5000000000000000  0.0000000000000000
  0.2500000000000000  0.7500000000000000  0.2500000000000000
  0.0000000000000000  0.5000000000000000  0.5000000000000000
  0.2500000000000000  0.7500000000000000  0.7500000000000000
  0.5000000000000000  0.0000000000000000  0.0000000000000000
  0.7500000000000000  0.2500000000000000  0.2500000000000000
  0.5000000000000000  0.0000000000000000  0.5000000000000000
  0.7500000000000000  0.2500000000000000  0.7500000000000000
  0.5000000000000000  0.5000000000000000  0.0000000000000000
  0.7500000000000000  0.7500000000000000  0.2500000000000000
  0.5000000000000000  0.5000000000000000  0.5000000000000000
  0.7500000000000000  0.7500000000000000  0.7500000000000000
  0.4145000000000000  0.0855000000000000  0.0855000000000000
  0.0855000000000000  0.4145000000000000  0.0855000000000000
  0.0855000000000000  0.0855000000000000  0.4145000000000000
  0.4145000000000000  0.4145000000000000  0.4145000000000000
  0.1645000000000000  0.3355000000000000  0.3355000000000000
  0.3355000000000000  0.1645000000000000  0.3355000000000000
  0.3355000000000000  0.3355000000000000  0.1645000000000000
  0.1645000000000000  0.1645000000000000  0.1645000000000000
  0.4145000000000000  0.0855000000000000  0.5855000000000000
  0.0855000000000000  0.4145000000000000  0.5855000000000000
  0.0855000000000000  0.0855000000000000  0.9145000000000001
  0.4145000000000000  0.4145000000000000  0.9145000000000001
  0.1645000000000000  0.3355000000000000  0.8355000000000000
  0.3355000000000000  0.1645000000000000  0.8355000000000000
  0.3355000000000000  0.3355000000000000  0.6645000000000000
  0.1645000000000000  0.1645000000000000  0.6645000000000000
  0.4145000000000000  0.5855000000000000  0.0855000000000000
  0.0855000000000000  0.9145000000000001  0.0855000000000000
  0.0855000000000000  0.5855000000000000  0.4145000000000000
  0.4145000000000000  0.9145000000000001  0.4145000000000000
  0.1645000000000000  0.8355000000000000  0.3355000000000000
  0.3355000000000000  0.6645000000000000  0.3355000000000000
  0.3355000000000000  0.8355000000000000  0.1645000000000000
  0.1645000000000000  0.6645000000000000  0.1645000000000000
  0.4145000000000000  0.5855000000000000  0.5855000000000000
  0.0855000000000000  0.9145000000000001  0.5855000000000000
  0.0855000000000000  0.5855000000000000  0.9145000000000001
  0.4145000000000000  0.9145000000000001  0.9145000000000001
  0.1645000000000000  0.8355000000000000  0.8355000000000000
  0.3355000000000000  0.6645000000000000  0.8355000000000000
  0.3355000000000000  0.8355000000000000  0.6645000000000000
  0.1645000000000000  0.6645000000000000  0.6645000000000000
  0.9145000000000001  0.0855000000000000  0.0855000000000000
  0.5855000000000001  0.4145000000000000  0.0855000000000000
  0.5855000000000001  0.0855000000000000  0.4145000000000000
  0.9145000000000001  0.4145000000000000  0.4145000000000000
  0.6645000000000000  0.3355000000000000  0.3355000000000000
  0.8355000000000000  0.1645000000000000  0.3355000000000000
  0.8355000000000000  0.3355000000000000  0.1645000000000000
  0.6645000000000000  0.1645000000000000  0.1645000000000000
  0.9145000000000001  0.0855000000000000  0.5855000000000000
  0.5855000000000001  0.4145000000000000  0.5855000000000000
  0.5855000000000001  0.0855000000000000  0.9145000000000001
  0.9145000000000001  0.4145000000000000  0.9145000000000001
  0.6645000000000000  0.3355000000000000  0.8355000000000000
  0.8355000000000000  0.1645000000000000  0.8355000000000000
  0.8355000000000000  0.3355000000000000  0.6645000000000000
  0.6645000000000000  0.1645000000000000  0.6645000000000000
  0.9145000000000001  0.5855000000000000  0.0855000000000000
  0.5855000000000001  0.9145000000000001  0.0855000000000000
  0.5855000000000001  0.5855000000000000  0.4145000000000000
  0.9145000000000001  0.9145000000000001  0.4145000000000000
  0.6645000000000000  0.8355000000000000  0.3355000000000000
  0.8355000000000000  0.6645000000000000  0.3355000000000000
  0.8355000000000000  0.8355000000000000  0.1645000000000000
  0.6645000000000000  0.6645000000000000  0.1645000000000000
  0.9145000000000001  0.5855000000000000  0.5855000000000000
  0.5855000000000001  0.9145000000000001  0.5855000000000000
  0.5855000000000001  0.5855000000000000  0.9145000000000001
  0.9145000000000001  0.9145000000000001  0.9145000000000001
  0.6645000000000000  0.8355000000000000  0.8355000000000000
  0.8355000000000000  0.6645000000000000  0.8355000000000000
  0.8355000000000000  0.8355000000000000  0.6645000000000000
  0.6645000000000000  0.6645000000000000  0.6645000000000000
